p cnf 132 351
-11 1 0
-11 2 0
11 -1 -2 0
-12 3 0
-12 4 0
12 -3 -4 0
-13 11 0
-13 12 0
13 -11 -12 0
-14 2 0
-14 5 0
14 -2 -5 0
-15 1 0
-15 4 0
15 -1 -4 0
-16 14 0
-16 15 0
16 -14 -15 0
-17 -14 0
-17 -15 0
17 14 15 0
-18 -16 0
-18 -17 0
18 16 17 0
-19 13 0
-19 18 0
19 -13 -18 0
-20 -13 0
-20 -18 0
20 13 18 0
-21 -19 0
-21 -20 0
21 19 20 0
-22 3 0
-22 6 0
22 -3 -6 0
-23 21 0
-23 22 0
23 -21 -22 0
-24 -16 0
-24 -19 0
24 16 19 0
-25 2 0
-25 7 0
25 -2 -7 0
-26 4 0
-26 5 0
26 -4 -5 0
-27 25 0
-27 26 0
27 -25 -26 0
-28 -25 0
-28 -26 0
28 25 26 0
-29 -27 0
-29 -28 0
29 27 28 0
-30 -24 0
-30 29 0
30 24 -29 0
-31 24 0
-31 -29 0
31 -24 29 0
-32 -30 0
-32 -31 0
32 30 31 0
-33 1 0
-33 6 0
33 -1 -6 0
-34 32 0
-34 33 0
34 -32 -33 0
-35 -32 0
-35 -33 0
35 32 33 0
-36 -34 0
-36 -35 0
36 34 35 0
-37 23 0
-37 36 0
37 -23 -36 0
-38 -23 0
-38 -36 0
38 23 36 0
-39 -37 0
-39 -38 0
39 37 38 0
-40 3 0
-40 8 0
40 -3 -8 0
-41 39 0
-41 40 0
41 -39 -40 0
-42 -34 0
-42 -37 0
42 34 37 0
-43 -27 0
-43 -30 0
43 27 30 0
-44 2 0
-44 9 0
44 -2 -9 0
-45 4 0
-45 7 0
45 -4 -7 0
-46 44 0
-46 45 0
46 -44 -45 0
-47 -44 0
-47 -45 0
47 44 45 0
-48 -46 0
-48 -47 0
48 46 47 0
-49 -43 0
-49 48 0
49 43 -48 0
-50 43 0
-50 -48 0
50 -43 48 0
-51 -49 0
-51 -50 0
51 49 50 0
-52 5 0
-52 6 0
52 -5 -6 0
-53 51 0
-53 52 0
53 -51 -52 0
-54 -51 0
-54 -52 0
54 51 52 0
-55 -53 0
-55 -54 0
55 53 54 0
-56 -42 0
-56 55 0
56 42 -55 0
-57 42 0
-57 -55 0
57 -42 55 0
-58 -56 0
-58 -57 0
58 56 57 0
-59 1 0
-59 8 0
59 -1 -8 0
-60 58 0
-60 59 0
60 -58 -59 0
-61 -58 0
-61 -59 0
61 58 59 0
-62 -60 0
-62 -61 0
62 60 61 0
-63 41 0
-63 62 0
63 -41 -62 0
-64 -41 0
-64 -62 0
64 41 62 0
-65 -63 0
-65 -64 0
65 63 64 0
-66 3 0
-66 10 0
66 -3 -10 0
-67 65 0
-67 66 0
67 -65 -66 0
-68 -65 0
-68 -66 0
68 65 66 0
-69 -67 0
-69 -68 0
69 67 68 0
-70 15 0
-70 22 0
70 -15 -22 0
-71 -15 0
-71 -22 0
71 15 22 0
-72 -70 0
-72 -71 0
72 70 71 0
-73 13 0
-73 72 0
73 -13 -72 0
-74 -13 0
-74 -72 0
74 13 72 0
-75 -73 0
-75 -74 0
75 73 74 0
-76 14 0
-76 75 0
76 -14 -75 0
-77 -70 0
-77 -73 0
77 70 73 0
-78 33 0
-78 40 0
78 -33 -40 0
-79 -33 0
-79 -40 0
79 33 40 0
-80 -78 0
-80 -79 0
80 78 79 0
-81 -77 0
-81 80 0
81 77 -80 0
-82 77 0
-82 -80 0
82 -77 80 0
-83 -81 0
-83 -82 0
83 81 82 0
-84 26 0
-84 83 0
84 -26 -83 0
-85 -26 0
-85 -83 0
85 26 83 0
-86 -84 0
-86 -85 0
86 84 85 0
-87 76 0
-87 86 0
87 -76 -86 0
-88 -76 0
-88 -86 0
88 76 86 0
-89 -87 0
-89 -88 0
89 87 88 0
-90 25 0
-90 89 0
90 -25 -89 0
-91 -84 0
-91 -87 0
91 84 87 0
-92 -78 0
-92 -81 0
92 78 81 0
-93 59 0
-93 66 0
93 -59 -66 0
-94 -59 0
-94 -66 0
94 59 66 0
-95 -93 0
-95 -94 0
95 93 94 0
-96 -92 0
-96 95 0
96 92 -95 0
-97 92 0
-97 -95 0
97 -92 95 0
-98 -96 0
-98 -97 0
98 96 97 0
-99 52 0
-99 98 0
99 -52 -98 0
-100 -52 0
-100 -98 0
100 52 98 0
-101 -99 0
-101 -100 0
101 99 100 0
-102 -91 0
-102 101 0
102 91 -101 0
-103 91 0
-103 -101 0
103 -91 101 0
-104 -102 0
-104 -103 0
104 102 103 0
-105 45 0
-105 104 0
105 -45 -104 0
-106 -45 0
-106 -104 0
106 45 104 0
-107 -105 0
-107 -106 0
107 105 106 0
-108 90 0
-108 107 0
108 -90 -107 0
-109 -90 0
-109 -107 0
109 90 107 0
-110 -108 0
-110 -109 0
110 108 109 0
-111 44 0
-111 110 0
111 -44 -110 0
-112 -44 0
-112 -110 0
112 44 110 0
-113 -111 0
-113 -112 0
113 111 112 0
-114 69 0
-114 -113 0
-115 -69 0
-115 113 0
116 114 115 0
-117 -39 0
-117 -40 0
117 39 40 0
-118 -41 0
-118 -117 0
118 41 117 0
-119 -25 0
-119 -89 0
119 25 89 0
-120 -90 0
-120 -119 0
120 90 119 0
-121 118 0
-121 -120 0
-122 -118 0
-122 120 0
123 121 122 0
124 -116 -123 0
-125 -21 0
-125 -22 0
125 21 22 0
-126 -23 0
-126 -125 0
126 23 125 0
-127 -14 0
-127 -75 0
127 14 75 0
-128 -76 0
-128 -127 0
128 76 127 0
-129 126 0
-129 -128 0
-130 -126 0
-130 128 0
131 129 130 0
132 -124 -131 0
-132 0
